p edge 40 195 15
v 1 5
v 4 15 22 29 30
v 1 12
v 3 14 16 24
v 6 17 23 25 26 28 33
v 2 9 36
v 3 10 18 39
v 1 37
v 2 2 27
v 4 6 19 31 32
v 2 8 34
v 4 7 21 38 40
v 2 20 35
v 2 3 4
v 3 1 11 13
e 1 4
e 1 7
e 1 11
e 1 13
e 1 17
e 1 19
e 1 20
e 1 21
e 1 25
e 1 28
e 1 39
e 2 7
e 2 11
e 2 13
e 2 14
e 2 15
e 2 21
e 2 29
e 2 31
e 2 32
e 2 35
e 3 9
e 3 11
e 3 12
e 3 13
e 3 14
e 3 22
e 3 29
e 3 32
e 3 33
e 3 39
e 4 9
e 4 10
e 4 12
e 4 14
e 4 22
e 4 24
e 4 28
e 4 30
e 4 36
e 4 38
e 4 39
e 5 6
e 5 8
e 5 15
e 5 21
e 5 22
e 5 24
e 5 31
e 5 32
e 5 34
e 6 7
e 6 11
e 6 12
e 6 21
e 6 22
e 6 27
e 6 28
e 6 29
e 6 40
e 7 9
e 7 10
e 7 13
e 7 14
e 7 16
e 7 17
e 7 20
e 7 25
e 7 29
e 7 35
e 7 39
e 8 11
e 8 13
e 8 14
e 8 17
e 8 20
e 8 30
e 8 38
e 9 11
e 9 14
e 9 16
e 9 18
e 9 24
e 9 29
e 9 34
e 9 37
e 10 11
e 10 13
e 10 14
e 10 17
e 10 23
e 10 29
e 10 30
e 10 34
e 10 36
e 10 40
e 11 14
e 11 16
e 11 19
e 11 25
e 11 32
e 11 33
e 11 39
e 12 14
e 12 16
e 12 17
e 12 18
e 12 20
e 12 27
e 12 36
e 13 22
e 13 26
e 13 27
e 13 31
e 13 33
e 13 38
e 14 16
e 14 25
e 14 26
e 15 17
e 15 19
e 15 22
e 15 26
e 15 32
e 15 34
e 15 39
e 16 22
e 16 25
e 16 27
e 16 29
e 16 39
e 17 27
e 17 33
e 17 39
e 18 22
e 18 28
e 18 33
e 18 35
e 19 22
e 19 28
e 19 31
e 19 32
e 19 34
e 19 35
e 19 37
e 20 22
e 20 25
e 20 28
e 20 29
e 20 37
e 21 25
e 21 26
e 21 38
e 22 26
e 22 30
e 22 34
e 22 36
e 22 37
e 22 39
e 22 40
e 23 25
e 23 26
e 23 29
e 24 26
e 24 28
e 24 30
e 24 31
e 24 32
e 24 37
e 25 37
e 25 40
e 26 31
e 26 38
e 26 40
e 27 30
e 27 35
e 27 38
e 27 39
e 27 40
e 28 39
e 29 30
e 29 32
e 29 34
e 29 36
e 29 39
e 29 40
e 30 32
e 30 34
e 30 36
e 31 33
e 31 37
e 32 38
e 33 36
e 36 38
e 39 40
